GPU_version/outputs/c108.out
Total number of lines in the file: 110
Total number of nodes including depot: 101
Customer 1: (40, 50), Demand: 0, Time Window: [0, 1236], Service Time: 0
Customer 2: (45, 68), Demand: 10, Time Window: [830, 1049], Service Time: 90
Customer 3: (45, 70), Demand: 30, Time Window: [756, 939], Service Time: 90
Customer 4: (42, 66), Demand: 10, Time Window: [16, 336], Service Time: 90
Customer 5: (42, 68), Demand: 10, Time Window: [643, 866], Service Time: 90
calling MST kernel
Post Processing Route
Post 2 opt Processing Route
2-opt between 7 and 8 improved cost from 1433.03 to 1429.20
Elapsed time: 0.621206 seconds
Final Route: 
Route #1: 67 65 63 62 74 61 72 64 68 
Route #2: 40 41 
Route #3: 42 44 45 48 50 51 
Route #4: 46 47 49 52 
Route #5: 43 55 57 59 
Route #6: 54 53 56 58 60 66 69 
Route #7: 20 21 22 
Route #8: 25 24 27 29 34 
Route #9: 33 32 31 35 36 39 
Route #10: 38 37 23 26 
Route #11: 28 30 
Route #12: 10 11 
Route #13: 8 9 6 4 1 2 
Route #14: 98 96 95 94 93 92 97 100 99 91 
Route #15: 89 88 
Route #16: 85 84 
Route #17: 83 82 
Route #18: 81 78 76 71 70 73 77 79 80 
Route #19: 90 87 86 3 
Route #20: 7 5 75 
Route #21: 13 17 18 19 15 16 14 12 
Route #22: Total Distance: 1433.03
Final route is valid
